NAME: A-n7-f3
COMMENT : -
TYPE : GVRP
DIMENSION : 9
EDGE_WEIGHT_TYPE : EUC_2D
CAPACITY : 100
AUTONOMY : 52
TIME LIMIT : 11
SPEED : 40.0
FUEL CONSUMPTION : 1.0
DEPOT_COORD_SECTION
0 82 76
CUSTOMER_COORD_SECTION
1 29 89 19 0.5904862567642878
2 58 30 21 0.5840399066940484
3 5 10 6 0.2102857851772516
4 50 93 19 0.8922291870354958
5 57 69 7 0.1395689571969384
6 23 15 12 0.8139131874711037
AFS_COORD_SECTION
7 24 14 0.25
8 42 38 0.25
9 48 84 0.25
EOF